1 -1 2 0
1 -3 -4 0
1 3 2 0
1 -5 -6 0
1 5 -7 0
1 -8 9 0
1 7 10 0
1 -7 3 0
1 -7 11 0
1 -7 12 0
1 -6 13 0
1 6 8 0
1 -6 -3 0
1 6 -14 0
1 2 15 0
1 2 -6 0
1 -16 17 0
1 16 7 0
1 18 -9 0
1 18 -16 0
1 -19 -20 0
1 -21 15 0
1 21 22 0
1 -23 -24 0
1 23 -19 0
1 23 16 0
1 9 25 0
1 9 -26 0
1 9 21 0
1 -9 -24 0
1 9 -19 0
1 27 16 0
1 -27 -5 0
1 -27 28 0
1 -29 -9 0
1 29 30 0
1 29 20 0
1 -31 -9 0
1 -31 -10 0
1 25 -32 0
1 -25 -22 0
1 22 25 0
1 -22 -21 0
1 -22 -33 0
1 22 29 0
1 22 19 0
1 22 34 0
1 20 19 0
1 32 -33 0
1 -30 -34 0
1 -30 -28 0
1 -35 -36 0
1 -35 -37 0
1 -38 39 0
1 38 40 0
1 -39 41 0
1 -39 42 0
1 -39 -43 0
1 -39 8 0
1 -39 44 0
1 42 -15 0
1 42 -4 0
1 42 -45 0
1 42 35 0
1 37 -14 0
1 -37 38 0
1 -41 -46 0
1 41 47 0
1 36 -48 0
1 -36 38 0
1 -14 49 0
1 13 18 0
1 13 43 0
1 -13 50 0
1 -45 15 0
1 45 49 0
1 -45 6 0
1 45 37 0
1 45 -19 0
1 -15 47 0
1 15 -43 0
1 -43 -51 0
1 50 -51 0
1 50 -15 0
1 -50 39 0
1 50 -14 0
1 -49 40 0
1 -49 38 0
1 40 13 0
1 -40 -39 0
1 40 52 0
1 40 -38 0
1 -11 17 0
1 -11 53 0
1 -10 -54 0
1 10 -53 0
1 10 -2 0
1 -55 -51 0
1 55 54 0
1 -51 -56 0
1 -51 54 0
1 -51 57 0
1 -51 -27 0
1 57 58 0
1 57 -59 0
1 59 51 0
1 -59 -10 0
1 59 -60 0
1 -59 28 0
1 54 -61 0
1 54 -58 0
1 53 10 0
1 53 -15 0
1 53 -62 0
1 -53 -45 0
1 -60 17 0
1 60 9 0
1 -60 30 0
1 60 -27 0
1 -60 -63 0
1 -28 -64 0
1 28 56 0
1 65 30 0
1 -65 66 0
1 -67 68 0
1 67 69 0
1 66 70 0
1 -66 -55 0
1 -66 71 0
1 66 -67 0
1 -56 60 0
1 56 -66 0
1 -56 -71 0
1 56 72 0
1 56 -67 0
1 -68 -51 0
1 68 -70 0
1 -68 -58 0
1 68 73 0
1 -33 -20 0
1 33 74 0
1 -33 -32 0
1 33 -22 0
1 -33 -34 0
1 -34 -56 0
1 -34 -20 0
1 -75 -76 0
1 -72 66 0
1 -72 77 0
1 72 78 0
1 72 -73 0
1 74 -23 0
1 74 34 0
1 26 79 0
1 -26 75 0
1 26 -33 0
1 26 34 0
1 77 80 0
1 -76 -77 0
1 76 -71 0
1 76 -72 0
1 -81 -26 0
1 81 -74 0
1 82 -71 0
1 83 84 0
1 85 -86 0
1 -85 78 0
1 85 -87 0
1 -84 -88 0
1 -84 -72 0
1 -78 89 0
1 78 -90 0
1 91 92 0
1 -44 93 0
1 44 39 0
1 -44 91 0
1 -94 47 0
1 -94 -93 0
1 94 -44 0
1 -94 -48 0
1 -93 95 0
1 93 96 0
1 -93 -44 0
1 93 97 0
1 -98 99 0
1 -98 -100 0
1 -98 101 0
1 102 103 0
1 102 104 0
1 102 -105 0
1 -102 -101 0
1 -102 -91 0
1 48 -106 0
1 -96 -13 0
1 -96 106 0
1 -96 -36 0
1 107 -41 0
1 107 47 0
1 47 -41 0
1 47 92 0
1 -47 108 0
1 -47 -106 0
1 -109 110 0
1 -109 111 0
1 109 -47 0
1 -109 96 0
1 -109 92 0
1 109 112 0
1 92 111 0
1 92 46 0
1 -92 47 0
1 92 -113 0
1 92 109 0
1 -106 91 0
1 -114 -44 0
1 52 -49 0
1 52 -92 0
1 -52 99 0
1 46 103 0
1 -46 -37 0
1 46 40 0
1 -115 -116 0
1 115 111 0
1 -115 -117 0
1 -115 55 0
1 115 -109 0
1 111 -118 0
1 -111 108 0
1 -111 115 0
1 116 -111 0
1 -116 -119 0
1 116 -117 0
1 -116 -69 0
1 -117 -64 0
1 117 -116 0
1 -117 -120 0
1 -117 107 0
1 121 -111 0
1 121 47 0
1 -108 122 0
1 62 -50 0
1 64 116 0
1 64 49 0
1 -119 -123 0
1 -119 124 0
1 119 -125 0
1 69 116 0
1 69 126 0
1 -69 127 0
1 -69 124 0
1 69 122 0
1 -126 111 0
1 125 64 0
1 125 -128 0
1 -125 119 0
1 125 -62 0
1 125 -115 0
1 125 -69 0
1 118 -62 0
1 -118 -124 0
1 -118 115 0
1 124 64 0
1 -124 -118 0
1 -124 129 0
1 -124 62 0
1 124 -130 0
1 58 129 0
1 -58 53 0
1 131 -132 0
1 -131 -133 0
1 131 -63 0
1 -134 135 0
1 134 132 0
1 -134 127 0
1 134 -73 0
1 -73 136 0
1 -127 -70 0
1 127 -119 0
1 -127 80 0
1 -127 69 0
1 -137 -80 0
1 137 -138 0
1 -132 139 0
1 132 140 0
1 -132 -58 0
1 -132 133 0
1 -132 -69 0
1 133 -73 0
1 70 76 0
1 70 136 0
1 70 -66 0
1 -71 76 0
1 -71 -127 0
1 71 -137 0
1 71 63 0
1 141 140 0
1 -141 -127 0
1 141 -61 0
1 -141 -142 0
1 -141 -137 0
1 80 141 0
1 80 -77 0
1 80 85 0
1 -136 -134 0
1 136 -143 0
1 -136 -144 0
1 145 -144 0
1 145 -73 0
1 145 -146 0
1 -61 147 0
1 61 -148 0
1 61 -149 0
1 -135 -150 0
1 -79 26 0
1 -144 -76 0
1 -144 26 0
1 144 -151 0
1 144 -74 0
1 144 78 0
1 -144 145 0
1 -152 153 0
1 -152 -142 0
1 -152 -145 0
1 154 -150 0
1 -154 -155 0
1 -151 -156 0
1 -151 66 0
1 -151 157 0
1 153 -56 0
1 -153 158 0
1 -153 -151 0
1 142 -159 0
1 -142 -80 0
1 -142 160 0
1 142 161 0
1 162 -147 0
1 -162 -156 0
1 89 -147 0
1 89 -84 0
1 89 88 0
1 -88 143 0
1 88 -87 0
1 158 163 0
1 158 164 0
1 -155 -89 0
1 155 165 0
1 -155 -74 0
1 155 166 0
1 -167 -168 0
1 -167 155 0
1 -164 158 0
1 164 -154 0
1 164 169 0
1 170 76 0
1 170 156 0
1 165 -167 0
1 -171 163 0
1 171 -155 0
1 -168 -90 0
1 -172 163 0
1 172 173 0
1 -163 171 0
1 163 -166 0
1 90 -174 0
1 -175 176 0
1 -175 157 0
1 177 -178 0
1 179 180 0
1 179 -181 0
1 182 -183 0
1 -182 -91 0
1 -183 180 0
1 183 184 0
1 178 -185 0
1 178 101 0
1 -186 100 0
1 180 187 0
1 -101 -178 0
1 -188 -98 0
1 188 101 0
1 188 -189 0
1 -100 190 0
1 -100 -184 0
1 -100 -191 0
1 -105 192 0
1 -105 193 0
1 105 -184 0
1 105 100 0
1 191 194 0
1 -191 99 0
1 -191 -100 0
1 -191 -101 0
1 -195 -105 0
1 -195 188 0
1 195 196 0
1 -184 -189 0
1 -184 -197 0
1 184 -105 0
1 184 198 0
1 184 100 0
1 189 199 0
1 189 -188 0
1 189 -185 0
1 -189 100 0
1 -99 -200 0
1 103 190 0
1 -103 -46 0
1 103 102 0
1 -103 -93 0
1 -103 -114 0
1 103 106 0
1 103 195 0
1 -194 190 0
1 -194 -201 0
1 -194 -202 0
1 201 -192 0
1 -201 95 0
1 -201 114 0
1 -201 203 0
1 200 204 0
1 200 113 0
1 200 194 0
1 200 99 0
1 -200 100 0
1 -190 201 0
1 190 103 0
1 190 -105 0
1 -190 194 0
1 190 100 0
1 192 -103 0
1 -192 105 0
1 -192 196 0
1 -192 -99 0
1 -192 100 0
1 -113 95 0
1 113 200 0
1 113 -203 0
1 113 -106 0
1 -110 199 0
1 110 190 0
1 110 95 0
1 -110 200 0
1 110 109 0
1 -123 205 0
1 123 121 0
1 -122 104 0
1 122 206 0
1 -122 207 0
1 -122 -203 0
1 -122 205 0
1 122 112 0
1 203 -123 0
1 203 -194 0
1 -203 130 0
1 95 194 0
1 -202 -113 0
1 -202 -208 0
1 -104 -201 0
1 -104 -204 0
1 -104 -209 0
1 129 -116 0
1 129 -118 0
1 -129 95 0
1 -129 -207 0
1 -210 -108 0
1 210 117 0
1 -210 -205 0
1 210 -211 0
1 212 206 0
1 -212 -213 0
1 130 214 0
1 130 118 0
1 -130 -120 0
1 -130 112 0
1 -112 140 0
1 -112 -207 0
1 112 215 0
1 -112 -216 0
1 112 -217 0
1 -112 -122 0
1 -207 -218 0
1 207 128 0
1 -207 -219 0
1 -207 -129 0
1 207 123 0
1 207 -216 0
1 207 220 0
1 -207 130 0
1 205 -218 0
1 205 -206 0
1 205 -129 0
1 -206 -218 0
1 -206 221 0
1 206 114 0
1 -206 212 0
1 -206 -123 0
1 206 -205 0
1 206 122 0
1 128 214 0
1 -128 -222 0
1 -128 -220 0
1 128 223 0
1 -220 -132 0
1 -220 -128 0
1 -220 -207 0
1 220 -213 0
1 216 -214 0
1 -216 -140 0
1 216 133 0
1 -214 148 0
1 -214 -224 0
1 -214 -212 0
1 214 -220 0
1 120 -140 0
1 -120 149 0
1 223 140 0
1 -223 213 0
1 -213 140 0
1 213 -128 0
1 213 -130 0
1 -139 218 0
1 -139 -120 0
1 -139 -133 0
1 139 -137 0
1 149 214 0
1 -149 61 0
1 -149 144 0
1 149 225 0
1 -149 -137 0
1 -148 -61 0
1 -148 226 0
1 150 227 0
1 -228 -149 0
1 -229 230 0
1 -229 -150 0
1 231 -232 0
1 225 -139 0
1 225 -233 0
1 225 -216 0
1 -147 -89 0
1 147 234 0
1 -147 -235 0
1 147 136 0
1 147 229 0
1 -147 162 0
1 -143 147 0
1 -143 -136 0
1 143 226 0
1 143 138 0
1 143 -145 0
1 161 -159 0
1 -161 226 0
1 161 -146 0
1 161 157 0
1 -159 161 0
1 159 229 0
1 -235 236 0
1 235 -159 0
1 138 237 0
1 138 159 0
1 138 -238 0
1 138 -239 0
1 -234 147 0
1 -234 159 0
1 234 -150 0
1 226 240 0
1 -160 241 0
1 160 -138 0
1 156 -138 0
1 156 160 0
1 -239 -242 0
1 239 -237 0
1 239 243 0
1 239 171 0
1 239 -146 0
1 237 168 0
1 -237 -244 0
1 237 -243 0
1 -241 -245 0
1 -241 176 0
1 246 160 0
1 -247 -237 0
1 -247 248 0
1 -249 175 0
1 -176 240 0
1 -174 -250 0
1 174 241 0
1 -174 169 0
1 174 251 0
1 -174 -146 0
1 252 175 0
1 252 -253 0
1 -252 -169 0
1 -243 249 0
1 -243 239 0
1 254 -255 0
1 -254 256 0
1 254 -176 0
1 -254 -257 0
1 244 -258 0
1 244 -245 0
1 244 -142 0
1 -242 -259 0
1 242 245 0
1 -242 -257 0
1 -260 254 0
1 -260 -175 0
1 260 243 0
1 260 172 0
1 -255 169 0
1 -261 253 0
1 -261 251 0
1 -261 -262 0
1 263 243 0
1 -251 -252 0
1 251 261 0
1 -251 -174 0
1 -253 -255 0
1 253 -167 0
1 253 -264 0
1 -253 251 0
1 169 252 0
1 -169 265 0
1 169 261 0
1 266 -252 0
1 266 -257 0
1 266 261 0
1 264 -267 0
1 264 251 0
1 -264 -173 0
1 -268 -269 0
1 268 267 0
1 270 -253 0
1 270 -271 0
1 272 -253 0
1 -272 271 0
1 -272 -270 0
1 272 173 0
1 173 -267 0
1 -173 273 0
1 173 -172 0
1 -267 -264 0
1 262 264 0
1 262 268 0
1 -271 263 0
1 271 -274 0
1 271 275 0
1 276 -277 0
1 -278 279 0
1 278 -280 0
1 -278 281 0
1 -279 193 0
1 277 -193 0
1 277 -282 0
1 277 -187 0
1 280 -276 0
1 -283 276 0
1 283 -284 0
1 187 282 0
1 -282 285 0
1 282 180 0
1 282 277 0
1 282 -286 0
1 -287 -285 0
1 287 -288 0
1 287 -289 0
1 193 -279 0
1 193 290 0
1 -193 -288 0
1 193 281 0
1 -291 292 0
1 -291 -282 0
1 -291 -293 0
1 286 -292 0
1 -286 293 0
1 286 198 0
1 286 287 0
1 286 187 0
1 -286 284 0
1 -285 -193 0
1 285 -281 0
1 -285 -287 0
1 -285 284 0
1 -281 -278 0
1 281 -293 0
1 -281 -287 0
1 -281 -187 0
1 185 291 0
1 -185 -294 0
1 -185 184 0
1 -185 -99 0
1 -197 178 0
1 197 -289 0
1 197 189 0
1 -198 -189 0
1 -292 288 0
1 288 -197 0
1 288 295 0
1 -294 -199 0
1 290 197 0
1 290 296 0
1 289 297 0
1 -289 -292 0
1 -289 -193 0
1 -289 -287 0
1 196 -298 0
1 196 184 0
1 196 191 0
1 -196 -113 0
1 196 -299 0
1 196 -293 0
1 199 297 0
1 199 -298 0
1 199 189 0
1 300 288 0
1 300 -301 0
1 300 -302 0
1 303 -304 0
1 303 -192 0
1 303 -298 0
1 -303 305 0
1 306 -292 0
1 306 198 0
1 -302 198 0
1 298 -292 0
1 298 -307 0
1 298 -300 0
1 -301 -196 0
1 -301 -308 0
1 204 -129 0
1 -204 -309 0
1 211 -104 0
1 211 306 0
1 -211 -302 0
1 -310 -311 0
1 310 -104 0
1 312 310 0
1 -312 -313 0
1 312 -202 0
1 312 314 0
1 -305 -310 0
1 305 211 0
1 315 221 0
1 -315 316 0
1 -315 -312 0
1 315 211 0
1 -309 -317 0
1 314 -310 0
1 -314 211 0
1 209 315 0
1 209 -206 0
1 221 313 0
1 -318 -305 0
1 -318 208 0
1 -319 318 0
1 311 320 0
1 -311 -221 0
1 -311 319 0
1 -311 209 0
1 313 -299 0
1 -313 321 0
1 313 -312 0
1 218 -139 0
1 -218 -213 0
1 -218 112 0
1 -215 -218 0
1 -215 207 0
1 215 112 0
1 -322 311 0
1 322 -208 0
1 -322 -323 0
1 -322 223 0
1 -227 -324 0
1 -323 232 0
1 -323 -325 0
1 323 -215 0
1 -326 327 0
1 -326 322 0
1 -326 -328 0
1 -326 227 0
1 -326 -323 0
1 208 -218 0
1 208 221 0
1 208 329 0
1 208 -227 0
1 -208 -330 0
1 331 -322 0
1 -331 -218 0
1 -331 329 0
1 -331 227 0
1 -327 231 0
1 -327 -326 0
1 327 -120 0
1 327 233 0
1 -233 327 0
1 233 -231 0
1 -233 -219 0
1 -233 -213 0
1 -233 -225 0
1 232 332 0
1 -232 326 0
1 -232 325 0
1 232 333 0
1 232 324 0
1 232 -161 0
1 325 323 0
1 -217 232 0
1 -217 322 0
1 -219 -322 0
1 -219 -230 0
1 -219 325 0
1 219 227 0
1 324 -232 0
1 324 322 0
1 -324 -334 0
1 324 330 0
1 -335 232 0
1 -335 -322 0
1 -335 -336 0
1 -335 -328 0
1 230 224 0
1 230 -231 0
1 230 219 0
1 230 -337 0
1 -338 339 0
1 338 -340 0
1 338 341 0
1 -342 332 0
1 -342 -339 0
1 342 -337 0
1 342 -343 0
1 342 -340 0
1 -224 -344 0
1 -224 230 0
1 224 250 0
1 -224 338 0
1 333 -345 0
1 -333 240 0
1 -333 342 0
1 333 -346 0
1 -332 -337 0
1 -337 347 0
1 -248 348 0
1 -248 349 0
1 -250 350 0
1 -250 236 0
1 250 238 0
1 -344 -350 0
1 -344 -238 0
1 339 231 0
1 339 351 0
1 343 352 0
1 -343 -353 0
1 -343 248 0
1 354 241 0
1 -354 -355 0
1 354 -247 0
1 -245 -255 0
1 -245 244 0
1 -356 -242 0
1 356 258 0
1 -356 -351 0
1 356 355 0
1 -356 357 0
1 -258 -348 0
1 -258 358 0
1 258 238 0
1 -236 359 0
1 238 -258 0
1 238 344 0
1 238 265 0
1 350 -234 0
1 -350 -360 0
1 -350 361 0
1 -355 -361 0
1 355 -354 0
1 -257 242 0
1 -257 -254 0
1 -257 244 0
1 257 361 0
1 -257 -169 0
1 -269 358 0
1 -269 362 0
1 265 -259 0
1 265 236 0
1 -265 358 0
1 -359 -363 0
1 359 -364 0
1 359 365 0
1 362 258 0
1 362 -366 0
1 362 -274 0
1 362 -367 0
1 -365 269 0
1 -365 265 0
1 365 -367 0
1 358 -258 0
1 358 368 0
1 358 -369 0
1 370 -256 0
1 -370 271 0
1 370 251 0
1 -275 259 0
1 -275 256 0
1 -274 -271 0
1 367 256 0
1 -364 -371 0
1 364 265 0
1 -364 -372 0
1 256 -254 0
1 256 373 0
1 -256 265 0
1 -256 273 0
1 256 -367 0
1 -256 275 0
1 363 374 0
1 363 275 0
1 259 -371 0
1 -373 -375 0
1 373 271 0
1 373 364 0
1 -273 376 0
1 273 -271 0
1 377 374 0
1 378 -379 0
1 375 380 0
1 -381 376 0
1 -381 273 0
1 376 -377 0
1 -376 373 0
1 376 -367 0
1 -382 -375 0
1 382 -383 0
1 384 -385 0
1 -380 -385 0
1 380 -386 0
1 -380 383 0
1 -386 -387 0
1 388 386 0
1 -388 384 0
1 -379 -377 0
1 379 388 0
1 383 382 0
1 -383 262 0
1 385 386 0
1 385 378 0
1 -293 285 0
1 -293 389 0
1 -293 289 0
1 297 286 0
1 -390 391 0
1 -390 -392 0
1 -390 389 0
1 390 393 0
1 -390 289 0
1 304 303 0
1 304 392 0
1 394 395 0
1 394 -297 0
1 -394 396 0
1 -389 304 0
1 -389 396 0
1 397 -280 0
1 307 394 0
1 307 391 0
1 -307 -290 0
1 -307 301 0
1 -308 -288 0
1 -308 307 0
1 308 393 0
1 308 398 0
1 -308 294 0
1 308 -301 0
1 -399 394 0
1 -399 -298 0
1 -399 -400 0
1 -396 296 0
1 396 -399 0
1 -396 -393 0
1 396 -400 0
1 401 291 0
1 401 317 0
1 -401 -399 0
1 -401 -402 0
1 -398 -304 0
1 -398 317 0
1 398 -396 0
1 -403 298 0
1 -403 -309 0
1 403 -302 0
1 404 301 0
1 404 302 0
1 -317 398 0
1 -317 405 0
1 317 -406 0
1 -407 -406 0
1 -407 -408 0
1 295 409 0
1 295 288 0
1 -295 -407 0
1 -400 -410 0
1 400 411 0
1 -296 412 0
1 296 413 0
1 296 -405 0
1 405 414 0
1 405 -399 0
1 -405 413 0
1 -415 315 0
1 -415 -416 0
1 415 417 0
1 -415 -406 0
1 -316 402 0
1 -316 314 0
1 409 -322 0
1 -409 414 0
1 409 295 0
1 409 400 0
1 409 -418 0
1 -321 313 0
1 -321 413 0
1 417 -321 0
1 417 -408 0
1 -408 -409 0
1 -408 -317 0
1 408 417 0
1 408 329 0
1 408 316 0
1 416 419 0
1 -416 -321 0
1 416 407 0
1 416 -406 0
1 406 -317 0
1 406 -412 0
1 420 327 0
1 -420 417 0
1 420 -421 0
1 -420 -422 0
1 420 319 0
1 421 -423 0
1 421 -420 0
1 -421 331 0
1 421 424 0
1 -421 -418 0
1 -425 -320 0
1 -425 -331 0
1 -425 426 0
1 -329 -425 0
1 329 -419 0
1 329 422 0
1 329 427 0
1 422 428 0
1 429 328 0
1 -424 -409 0
1 424 -430 0
1 -418 425 0
1 -418 431 0
1 418 420 0
1 418 -321 0
1 -418 432 0
1 -418 -433 0
1 -330 328 0
1 330 324 0
1 328 429 0
1 -328 331 0
1 -328 335 0
1 -328 230 0
1 328 -422 0
1 341 434 0
1 428 435 0
1 -428 -342 0
1 428 -436 0
1 -428 437 0
1 426 428 0
1 -426 438 0
1 426 341 0
1 -320 -425 0
1 320 439 0
1 320 440 0
1 -320 441 0
1 320 328 0
1 -320 -341 0
1 -427 -442 0
1 -427 -443 0
1 -427 -328 0
1 427 -341 0
1 442 425 0
1 442 439 0
1 -442 341 0
1 442 330 0
1 349 444 0
1 349 432 0
1 441 -320 0
1 441 -217 0
1 -438 434 0
1 -438 -437 0
1 440 -426 0
1 -440 437 0
1 -440 445 0
1 437 345 0
1 437 -435 0
1 437 446 0
1 435 -441 0
1 -434 447 0
1 -434 -440 0
1 -444 448 0
1 444 -447 0
1 444 -439 0
1 444 434 0
1 -353 449 0
1 -345 332 0
1 -345 -245 0
1 -345 339 0
1 -345 333 0
1 -351 336 0
1 -352 -450 0
1 -352 -435 0
1 -352 336 0
1 352 346 0
1 352 445 0
1 -445 -451 0
1 445 -452 0
1 -451 -352 0
1 -451 -219 0
1 -451 351 0
1 -334 351 0
1 336 448 0
1 336 -335 0
1 336 453 0
1 -336 454 0
1 336 334 0
1 -336 -438 0
1 -336 455 0
1 -361 348 0
1 -361 -451 0
1 -361 -347 0
1 361 257 0
1 -361 340 0
1 361 445 0
1 456 -361 0
1 456 -355 0
1 -457 -458 0
1 452 459 0
1 -452 445 0
1 460 461 0
1 -460 -361 0
1 460 -452 0
1 450 -352 0
1 450 462 0
1 450 351 0
1 347 452 0
1 463 -464 0
1 463 -358 0
1 463 -462 0
1 463 -346 0
1 -463 -458 0
1 -463 357 0
1 465 -460 0
1 465 466 0
1 -465 -355 0
1 -465 -455 0
1 467 -466 0
1 467 274 0
1 -467 346 0
1 -467 -458 0
1 369 -468 0
1 369 466 0
1 369 346 0
1 369 -367 0
1 -369 -357 0
1 -466 374 0
1 466 -457 0
1 -466 -458 0
1 466 -452 0
1 458 -469 0
1 -458 -463 0
1 458 457 0
1 -464 -470 0
1 464 -465 0
1 471 -469 0
1 -471 -464 0
1 -471 461 0
1 -471 -343 0
1 471 472 0
1 -366 466 0
1 366 473 0
1 -366 -365 0
1 -368 366 0
1 -368 -473 0
1 -374 -474 0
1 -374 -458 0
1 475 -259 0
1 475 474 0
1 475 -363 0
1 -473 -476 0
1 -473 -475 0
1 -477 476 0
1 -477 371 0
1 -477 -238 0
1 -360 478 0
1 360 -470 0
1 -360 368 0
1 -468 374 0
1 371 -479 0
1 -371 -474 0
1 -371 -480 0
1 372 376 0
1 372 473 0
1 372 -381 0
1 -372 480 0
1 372 481 0
1 -476 380 0
1 -476 -482 0
1 476 477 0
1 387 473 0
1 -387 474 0
1 481 371 0
1 481 475 0
1 479 476 0
1 -479 -372 0
1 480 -371 0
1 -480 387 0
1 -483 -484 0
1 483 391 0
1 -483 -401 0
1 -483 -296 0
1 483 -485 0
1 402 296 0
1 402 483 0
1 402 -485 0
1 414 -484 0
1 -414 486 0
1 414 487 0
1 413 414 0
1 -413 296 0
1 -395 419 0
1 395 413 0
1 487 -483 0
1 487 -389 0
1 484 488 0
1 484 -397 0
1 -485 -392 0
1 -410 -395 0
1 -410 -420 0
1 -412 416 0
1 412 405 0
1 412 400 0
1 489 486 0
1 -489 -490 0
1 -489 -419 0
1 489 406 0
1 -419 489 0
1 -419 -395 0
1 419 491 0
1 -419 487 0
1 419 406 0
1 -490 401 0
1 492 -436 0
1 -486 -493 0
1 -494 -495 0
1 494 -419 0
1 496 -408 0
1 430 490 0
1 -430 -416 0
1 430 417 0
1 -430 -497 0
1 430 -418 0
1 433 498 0
1 -433 499 0
1 -433 -500 0
1 -433 -501 0
1 -436 418 0
1 -498 -502 0
1 -498 295 0
1 498 503 0
1 411 -502 0
1 -411 498 0
1 -411 436 0
1 411 -503 0
1 491 489 0
1 491 497 0
1 -497 496 0
1 -497 502 0
1 -497 -495 0
1 -497 -503 0
1 432 411 0
1 -432 418 0
1 504 429 0
1 -504 500 0
1 504 418 0
1 -505 431 0
1 -505 -442 0
1 505 -499 0
1 505 -427 0
1 505 506 0
1 443 507 0
1 -443 -498 0
1 -443 508 0
1 -499 439 0
1 -499 433 0
1 501 509 0
1 -501 -510 0
1 -501 449 0
1 500 -504 0
1 -511 -502 0
1 -511 503 0
1 -449 512 0
1 449 -442 0
1 -449 -499 0
1 -449 -501 0
1 439 320 0
1 439 513 0
1 -439 -427 0
1 510 512 0
1 510 447 0
1 510 -514 0
1 510 -508 0
1 447 512 0
1 447 499 0
1 -513 439 0
1 -513 -515 0
1 -512 -443 0
1 -512 515 0
1 -508 -447 0
1 508 516 0
1 508 -449 0
1 508 505 0
1 -431 517 0
1 431 -518 0
1 431 -443 0
1 454 -361 0
1 -454 -519 0
1 -448 -512 0
1 448 520 0
1 -448 521 0
1 522 -459 0
1 -522 521 0
1 -459 -517 0
1 459 -334 0
1 519 523 0
1 519 -524 0
1 -519 525 0
1 514 459 0
1 -514 -447 0
1 514 -454 0
1 -521 -448 0
1 -521 -523 0
1 521 510 0
1 -521 -515 0
1 -526 -459 0
1 526 -442 0
1 526 521 0
1 -462 -527 0
1 -462 -528 0
1 -462 -529 0
1 462 -519 0
1 -462 -455 0
1 -455 527 0
1 -455 528 0
1 -455 347 0
1 455 465 0
1 455 -445 0
1 524 519 0
1 525 -527 0
1 525 528 0
1 446 524 0
1 -528 -462 0
1 -528 522 0
1 528 -472 0
1 -528 -530 0
1 -531 -532 0
1 531 -533 0
1 527 -444 0
1 -527 534 0
1 -527 523 0
1 -527 462 0
1 -527 522 0
1 -527 525 0
1 -461 -535 0
1 -461 -528 0
1 461 -536 0
1 461 -346 0
1 461 -537 0
1 -530 -464 0
1 530 -346 0
1 -530 533 0
1 -530 -537 0
1 -538 535 0
1 -538 -539 0
1 538 374 0
1 538 -453 0
1 538 540 0
1 -538 -446 0
1 -535 538 0
1 535 -536 0
1 -536 482 0
1 -536 -451 0
1 -536 -470 0
1 536 -530 0
1 -536 525 0
1 -537 538 0
1 537 525 0
1 -537 -334 0
1 -469 535 0
1 -469 541 0
1 -469 -536 0
1 -470 539 0
1 470 -464 0
1 470 466 0
1 470 536 0
1 -482 -541 0
1 482 -542 0
1 -482 468 0
1 -478 360 0
1 -539 538 0
1 541 450 0
1 541 -540 0
1 -540 -541 0
1 -540 -482 0
1 540 -538 0
1 -543 -488 0
1 -543 494 0
1 -495 486 0
1 -495 -494 0
1 -495 -497 0
1 506 -544 0
1 506 -545 0
1 506 -507 0
1 506 -546 0
1 506 547 0
1 506 505 0
1 507 547 0
1 544 548 0
1 -544 -546 0
1 -546 -502 0
1 546 -495 0
1 -546 -549 0
1 -488 543 0
1 -550 -495 0
1 550 506 0
1 -550 543 0
1 -503 -491 0
1 -503 411 0
1 -503 546 0
1 -503 -449 0
1 502 -439 0
1 -502 -500 0
1 -502 546 0
1 502 -547 0
1 -549 493 0
1 -549 551 0
1 549 500 0
1 -549 -511 0
1 -552 447 0
1 552 546 0
1 -547 492 0
1 -547 553 0
1 493 554 0
1 -493 549 0
1 -555 507 0
1 -555 -494 0
1 -509 -520 0
1 509 -556 0
1 509 508 0
1 520 -431 0
1 520 -545 0
1 -520 -557 0
1 -520 558 0
1 -516 -559 0
1 517 459 0
1 -556 517 0
1 556 516 0
1 -558 560 0
1 -558 561 0
1 558 515 0
1 551 491 0
1 -551 516 0
1 551 -549 0
1 -557 516 0
1 -557 562 0
1 529 462 0
1 529 554 0
1 -529 563 0
1 529 513 0
1 529 -521 0
1 -529 -564 0
1 -515 558 0
1 560 565 0
1 -560 559 0
1 -560 563 0
1 -566 -526 0
1 566 -525 0
1 -563 -567 0
1 -563 564 0
1 -564 523 0
1 564 529 0
1 -564 -567 0
1 559 -568 0
1 559 -515 0
1 569 -568 0
1 -569 516 0
1 -569 -566 0
1 523 570 0
1 523 -533 0
1 -533 -527 0
1 533 -523 0
1 -534 571 0
1 534 527 0
1 534 -570 0
1 -572 -534 0
1 572 513 0
1 572 -573 0
1 572 -574 0
1 565 -575 0
1 565 -532 0
1 565 566 0
1 570 518 0
1 -570 534 0
1 -570 576 0
1 -570 -574 0
1 518 567 0
1 -518 -566 0
1 -532 577 0
1 532 -528 0
1 -532 446 0
1 -573 -572 0
1 573 571 0
1 -575 -578 0
1 -579 -565 0
1 -579 580 0
1 -579 -453 0
1 -579 572 0
1 -579 -576 0
1 -579 -571 0
1 579 537 0
1 -571 577 0
1 577 -532 0
1 -577 -571 0
1 -577 573 0
1 -580 -581 0
1 -554 -551 0
1 554 529 0
1 554 582 0
1 -554 -557 0
1 562 -554 0
1 583 -548 0
1 583 584 0
1 583 -560 0
1 583 585 0
1 -548 -586 0
1 -548 561 0
1 -587 588 0
1 589 548 0
1 589 590 0
1 -589 551 0
1 589 -556 0
1 589 582 0
1 589 -553 0
1 589 557 0
1 -561 590 0
1 -561 -589 0
1 561 -582 0
1 -591 592 0
1 -591 593 0
1 591 582 0
1 -586 -590 0
1 -586 585 0
1 -586 -594 0
1 584 568 0
1 -584 -591 0
1 584 586 0
1 553 -589 0
1 553 583 0
1 553 567 0
1 590 493 0
1 -568 -595 0
1 -568 -569 0
1 567 593 0
1 567 559 0
1 -578 593 0
1 -578 -595 0
1 -576 578 0
1 -576 -593 0
1 -576 -579 0
1 -593 568 0
1 -593 -567 0
1 -595 568 0
1 -595 -591 0
1 -592 568 0
1 592 -591 0
